1672624
37,62,39,51,35,68,8,15,58,9,17,27,45,65,20,48,4,47,13,54,1,61,24,63,2,16,59,36,28,21,3,42,12,32,56,40,5,29,60,19,49,23,6,25,30,41,11,66,26,55,34,46,43,7,67,64,38,31,22,52,33,57,18,10,14,44,50,53